(declare-fun var0 () String)
(assert (str.in.re var0 (re.++ (re.* (re.* (str.to.re "GGG"))) (re.++ (re.* (re.union (str.to.re "EEE") (str.to.re "FF"))) (re.++ (re.+ (re.+ (str.to.re "DDD"))) (re.++ (re.* (re.* (str.to.re "CC"))) (re.++ (re.* (re.union (str.to.re "AA") (str.to.re "BB"))) (re.++ (re.* (re.* (str.to.re "zz"))) (re.++ (re.union (re.+ (str.to.re "x")) (re.* (str.to.re "y"))) (re.++ (re.* (re.+ (str.to.re "ww"))) (re.++ (re.union (re.* (str.to.re "uuu")) (re.+ (str.to.re "vv"))) (re.++ (re.union (re.+ (str.to.re "ss")) (re.+ (str.to.re "ttt"))) (re.++ (re.* (re.union (str.to.re "q") (str.to.re "r"))) (re.++ (re.union (re.union (str.to.re "n") (str.to.re "o")) (re.* (str.to.re "ppp"))) (re.++ (re.union (re.+ (str.to.re "l")) (re.+ (str.to.re "m"))) (re.++ (re.+ (re.union (str.to.re "jj") (str.to.re "k"))) (re.++ (re.+ (re.* (str.to.re "ii"))) (re.++ (re.* (re.union (str.to.re "gg") (str.to.re "hhh"))) (re.++ (re.+ (re.union (str.to.re "ee") (str.to.re "fff"))) (re.++ (re.union (re.union (str.to.re "aa") (str.to.re "b")) (re.union (str.to.re "ccc") (str.to.re "d"))) (re.++ (re.union (re.* (str.to.re "77")) (re.union (str.to.re "88") (str.to.re "999"))) (re.++ (re.* (re.union (str.to.re "5") (str.to.re "6"))) (re.++ (re.+ (re.* (str.to.re "44"))) (re.++ (re.+ (re.* (str.to.re "33"))) (re.++ (re.+ (re.* (str.to.re "2"))) (re.++ (re.union (re.* (str.to.re "~~~")) (re.union (str.to.re "00") (str.to.re "1"))) (re.++ (re.union (re.union (str.to.re "{{{") (str.to.re "|||")) (re.* (str.to.re "}}"))) (re.++ (re.+ (re.* (str.to.re "``"))) (re.++ (re.* (re.* (str.to.re "___"))) (re.++ (re.union (re.union (str.to.re "\\\\\\") (str.to.re "]]")) (re.* (str.to.re "^^^"))) (re.++ (re.+ (re.+ (str.to.re "[["))) (re.++ (re.+ (re.union (str.to.re "?") (str.to.re "@@@"))) (re.++ (re.+ (re.union (str.to.re "===") (str.to.re ">"))) (re.++ (re.* (re.+ (str.to.re "<"))) (re.++ (re.union (re.union (str.to.re "//") (str.to.re "::")) (re.+ (str.to.re ";"))) (re.++ (re.* (re.union (str.to.re "-") (str.to.re ".."))) (re.++ (re.+ (re.* (str.to.re ",,,"))) (re.++ (re.union (re.union (str.to.re "((") (str.to.re "))")) (re.union (str.to.re "*") (str.to.re "+++"))) (re.++ (re.* (re.union (str.to.re "&&&") (str.to.re "''"))) (re.++ (re.+ (re.union (str.to.re "$") (str.to.re "%"))) (re.++ (re.+ (re.* (str.to.re "###"))) (re.++ (re.union (re.+ (str.to.re "!")) (re.* (str.to.re """"""))) (re.++ (re.+ (re.+ (str.to.re "Z"))) (re.++ (re.+ (re.* (str.to.re "YYY"))) (re.++ (re.* (re.* (str.to.re "XX"))) (re.++ (re.+ (re.* (str.to.re "W"))) (re.++ (re.+ (re.* (str.to.re "VVV"))) (re.++ (re.* (re.union (str.to.re "TT") (str.to.re "U"))) (re.++ (re.union (re.* (str.to.re "QQQ")) (re.union (str.to.re "RRR") (str.to.re "SSS"))) (re.++ (re.+ (re.+ (str.to.re "P"))) (re.++ (re.+ (re.union (str.to.re "N") (str.to.re "OO"))) (re.++ (re.* (re.+ (str.to.re "MMM"))) (re.++ (re.+ (re.* (str.to.re "LL"))) (re.++ (re.+ (re.* (str.to.re "KK"))) (re.++ (re.* (re.* (str.to.re "JJ"))) (re.++ (re.* (re.union (str.to.re "HH") (str.to.re "I"))) (re.++ (re.+ (re.* (str.to.re "G"))) (re.++ (re.* (re.* (str.to.re "FF"))) (re.++ (re.union (re.* (str.to.re "D")) (re.* (str.to.re "E"))) (re.++ (re.+ (re.union (str.to.re "B") (str.to.re "CC"))) (re.++ (re.* (re.union (str.to.re "zz") (str.to.re "AA"))) (re.++ (re.union (re.* (str.to.re "xx")) (re.* (str.to.re "yy"))) (re.++ (re.union (re.union (str.to.re "uu") (str.to.re "v")) (re.* (str.to.re "w"))) (re.++ (re.union (re.union (str.to.re "rrr") (str.to.re "ss")) (re.* (str.to.re "tt"))) (re.++ (re.+ (re.* (str.to.re "q"))) (re.++ (re.* (re.union (str.to.re "oo") (str.to.re "ppp"))) (re.++ (re.* (re.+ (str.to.re "nnn"))) (re.++ (re.union (re.union (str.to.re "j") (str.to.re "kkk")) (re.union (str.to.re "l") (str.to.re "mm"))) (re.++ (re.* (re.union (str.to.re "h") (str.to.re "ii"))) (re.++ (re.+ (re.* (str.to.re "g"))) (re.++ (re.union (re.+ (str.to.re "e")) (re.+ (str.to.re "fff"))) (re.++ (re.+ (re.+ (str.to.re "dd"))) (re.++ (re.+ (re.* (str.to.re "ccc"))) (re.++ (re.+ (re.+ (str.to.re "b"))) (re.++ (re.* (re.* (str.to.re "aaa"))) (re.++ (re.union (re.union (str.to.re "77") (str.to.re "88")) (re.+ (str.to.re "9"))) (re.++ (re.+ (re.union (str.to.re "555") (str.to.re "666"))) (re.++ (re.union (re.* (str.to.re "3")) (re.* (str.to.re "444"))) (re.++ (re.+ (re.+ (str.to.re "22"))) (re.++ (re.+ (re.+ (str.to.re "1"))) (re.++ (re.union (re.* (str.to.re "}}")) (re.union (str.to.re "~") (str.to.re "00"))) (re.++ (re.* (re.+ (str.to.re "|"))) (re.++ (re.+ (re.* (str.to.re "{"))) (re.++ (re.union (re.union (str.to.re "^^^") (str.to.re "___")) (re.+ (str.to.re "`"))) (re.++ (re.+ (re.* (str.to.re "]]"))) (re.++ (re.+ (re.+ (str.to.re "\\"))) (re.++ (re.+ (re.+ (str.to.re "[["))) (re.++ (re.* (re.+ (str.to.re "@@"))) (re.++ (re.union (re.union (str.to.re "<<<") (str.to.re "==")) (re.union (str.to.re ">>>") (str.to.re "??"))) (re.++ (re.+ (re.* (str.to.re ";;"))) (re.++ (re.* (re.+ (str.to.re "::"))) (re.++ (re.* (re.+ (str.to.re "/"))) (re.++ (re.union (re.union (str.to.re ",,") (str.to.re "-")) (re.+ (str.to.re ".."))) (re.++ (re.union (re.* (str.to.re ")))")) (re.union (str.to.re "**") (str.to.re "+++"))) (re.++ (re.+ (re.union (str.to.re "'") (str.to.re "(("))) (re.++ (re.union (re.* (str.to.re "$$$")) (re.union (str.to.re "%%%") (str.to.re "&"))) (re.++ (re.* (re.* (str.to.re "#"))) (re.++ (re.+ (re.* (str.to.re """"))) (re.++ (re.+ (re.union (str.to.re "ZZZ") (str.to.re "!!"))) (re.++ (re.* (re.union (str.to.re "XX") (str.to.re "Y"))) (re.++ (re.* (re.union (str.to.re "VV") (str.to.re "WW"))) (re.++ (re.* (re.union (str.to.re "TT") (str.to.re "UU"))) (re.++ (re.* (re.+ (str.to.re "SS"))) (re.++ (re.+ (re.* (str.to.re "RR"))) (re.++ (re.union (re.* (str.to.re "P")) (re.* (str.to.re "QQ"))) (re.++ (re.+ (re.* (str.to.re "OO"))) (re.++ (re.union (re.+ (str.to.re "L")) (re.union (str.to.re "MM") (str.to.re "NNN"))) (re.++ (re.* (re.union (str.to.re "JJ") (str.to.re "KKK"))) (re.++ (re.union (re.+ (str.to.re "H")) (re.* (str.to.re "II"))) (re.++ (re.union (re.* (str.to.re "F")) (re.* (str.to.re "GGG"))) (re.++ (re.* (re.* (str.to.re "EE"))) (re.++ (re.+ (re.* (str.to.re "D"))) (re.++ (re.+ (re.+ (str.to.re "C"))) (re.++ (re.* (re.+ (str.to.re "BB"))) (re.++ (re.union (re.union (str.to.re "yyy") (str.to.re "zzz")) (re.* (str.to.re "AAA"))) (re.++ (re.union (re.+ (str.to.re "vv")) (re.union (str.to.re "w") (str.to.re "x"))) (re.++ (re.* (re.+ (str.to.re "uuu"))) (re.++ (re.+ (re.+ (str.to.re "t"))) (re.++ (re.+ (re.union (str.to.re "rrr") (str.to.re "ss"))) (re.++ (re.+ (re.* (str.to.re "qq"))) (re.++ (re.union (re.union (str.to.re "m") (str.to.re "nnn")) (re.union (str.to.re "ooo") (str.to.re "ppp"))) (re.++ (re.* (re.* (str.to.re "l"))) (re.++ (re.+ (re.* (str.to.re "kkk"))) (re.++ (re.union (re.* (str.to.re "i")) (re.* (str.to.re "jj"))) (re.++ (re.* (re.* (str.to.re "hh"))) (re.++ (re.union (re.union (str.to.re "ee") (str.to.re "fff")) (re.* (str.to.re "gg"))) (re.++ (re.union (re.union (str.to.re "bb") (str.to.re "cc")) (re.* (str.to.re "d"))) (re.++ (re.* (re.+ (str.to.re "aa"))) (re.++ (re.union (re.+ (str.to.re "8")) (re.+ (str.to.re "99"))) (re.++ (re.+ (re.+ (str.to.re "77"))) (re.++ (re.union (re.* (str.to.re "5")) (re.+ (str.to.re "66"))) (re.++ (re.union (re.union (str.to.re "22") (str.to.re "3")) (re.* (str.to.re "444"))) (re.++ (re.* (re.+ (str.to.re "111"))) (re.++ (re.* (re.union (str.to.re "~~") (str.to.re "00"))) (re.++ (re.* (re.+ (str.to.re "}}}"))) (re.++ (re.* (re.* (str.to.re "||"))) (re.++ (re.* (re.union (str.to.re "``") (str.to.re "{{"))) (re.++ (re.+ (re.+ (str.to.re "_"))) (re.++ (re.* (re.union (str.to.re "]]") (str.to.re "^^"))) (re.++ (re.union (re.union (str.to.re "@@") (str.to.re "[[")) (re.* (str.to.re "\\\\"))) (re.++ (re.union (re.+ (str.to.re ">")) (re.* (str.to.re "???"))) (re.++ (re.union (re.union (str.to.re ";") (str.to.re "<<<")) (re.* (str.to.re "=="))) (re.++ (re.+ (re.+ (str.to.re ":"))) (re.++ (re.+ (re.* (str.to.re "///"))) (re.++ (re.+ (re.+ (str.to.re ".."))) (re.++ (re.union (re.* (str.to.re ",")) (re.+ (str.to.re "-"))) (re.++ (re.union (re.union (str.to.re ")") (str.to.re "*")) (re.+ (str.to.re "+++"))) (re.++ (re.* (re.union (str.to.re "''") (str.to.re "((("))) (re.++ (re.union (re.* (str.to.re "%%%")) (re.* (str.to.re "&&&"))) (re.++ (re.union (re.+ (str.to.re "#")) (re.* (str.to.re "$$"))) (re.++ (re.+ (re.union (str.to.re "!!!") (str.to.re """"""""))) (re.++ (re.* (re.+ (str.to.re "ZZ"))) (re.++ (re.* (re.+ (str.to.re "YYY"))) (re.++ (re.+ (re.union (str.to.re "W") (str.to.re "XX"))) (re.++ (re.union (re.union (str.to.re "S") (str.to.re "TTT")) (re.union (str.to.re "UU") (str.to.re "V"))) (re.++ (re.* (re.union (str.to.re "QQ") (str.to.re "RR"))) (re.++ (re.* (re.+ (str.to.re "P"))) (re.++ (re.union (re.+ (str.to.re "N")) (re.* (str.to.re "OO"))) (re.++ (re.* (re.* (str.to.re "M"))) (re.++ (re.* (re.* (str.to.re "L"))) (re.++ (re.* (re.union (str.to.re "J") (str.to.re "K"))) (re.++ (re.* (re.union (str.to.re "HHH") (str.to.re "II"))) (re.++ (re.* (re.* (str.to.re "GGG"))) (re.++ (re.union (re.union (str.to.re "C") (str.to.re "DDD")) (re.union (str.to.re "EE") (str.to.re "FF"))) (re.++ (re.+ (re.* (str.to.re "BB"))) (re.++ (re.* (re.* (str.to.re "AA"))) (re.++ (re.+ (re.* (str.to.re "zz"))) (re.++ (re.+ (re.union (str.to.re "xxx") (str.to.re "yy"))) (re.++ (re.union (re.+ (str.to.re "vvv")) (re.* (str.to.re "ww"))) (re.++ (re.* (re.+ (str.to.re "uu"))) (re.++ (re.union (re.* (str.to.re "s")) (re.+ (str.to.re "t"))) (re.++ (re.union (re.* (str.to.re "p")) (re.union (str.to.re "qqq") (str.to.re "r"))) (re.++ (re.union (re.* (str.to.re "nn")) (re.* (str.to.re "ooo"))) (re.++ (re.+ (re.union (str.to.re "l") (str.to.re "mm"))) (re.++ (re.+ (re.union (str.to.re "j") (str.to.re "kkk"))) (re.++ (re.union (re.union (str.to.re "ggg") (str.to.re "hh")) (re.* (str.to.re "ii"))) (re.++ (re.union (re.union (str.to.re "d") (str.to.re "eee")) (re.+ (str.to.re "fff"))) (re.++ (re.+ (re.union (str.to.re "bb") (str.to.re "cc"))) (re.++ (re.+ (re.+ (str.to.re "aaa"))) (re.++ (re.union (re.+ (str.to.re "8")) (re.+ (str.to.re "999"))) (re.++ (re.* (re.+ (str.to.re "7"))) (re.++ (re.* (re.+ (str.to.re "666"))) (re.++ (re.+ (re.union (str.to.re "444") (str.to.re "5"))) (re.++ (re.+ (re.* (str.to.re "3"))) (re.union (re.+ (str.to.re "00")) (re.union (str.to.re "1") (str.to.re "222")))))))))))))))))))))))))))))))))))))))))))))))))))))))))))))))))))))))))))))))))))))))))))))))))))))))))))))))))))))))))))))))))))))))))))))))))))))))))))))))))))))))))))))))))))))))))))
(check-sat)